78
0 4 32 28 42 20 44 48 17 61 
23 56 71 54 52 11 72 58 66 45 
19 13 68 67 3 6 34 33 41 16 
2 36 39 29 9 24 30 55 49 1 
22 65 75 77 74 5 26 25 51 60 
70 40 15 31 38 7 53 64 43 63 
21 12 46 59 47 27 76 69 14 8 
35 57 50 10 18 73 37 62 
